solution status: optimal solution found
objective value:                                    0
$_32_y                                            -25 	(obj:0)
$_32_z                                            -20 	(obj:0)
$_35_y                                            -25 	(obj:0)
$_35_z                                            -21 	(obj:0)
$_31_y                                            -25 	(obj:0)
$_31_z                                            -25 	(obj:0)
$_30_y                                            -25 	(obj:0)
$_30_z                                            -18 	(obj:0)
$_33_y                                            -21 	(obj:0)
$_33_z                                            -25 	(obj:0)
$_34_y                                            -25 	(obj:0)
$_34_z                                            -19 	(obj:0)
